language ESSENCE' 1.0

letting M_FunctionND be
        [[0, 1, 2, 3, 4; int(0..4)], [1, 1, 2, 1, 4; int(0..4)], [2, 2, 4, 2, 1; int(0..4)], [3, 1, 2, 1, 4; int(0..4)],
         [4, 4, 1, 4, 2; int(0..4)];
             int(0..4)]
$ Visualisation for M_FunctionND
$ 0 1 2 3 4
$ 1 1 2 1 4
$ 2 2 4 2 1
$ 3 1 2 1 4
$ 4 4 1 4 2

letting id be 0
